Al
 1.0000000000000000
     4.0499999999999998    0.0000000000000000    0.0000000000000000
     0.0000000000000000    4.0499999999999998    0.0000000000000000
     0.0000000000000000    0.0000000000000000    4.0499999999999998
 Al 
   4
Cartesian
  0.0000000000000000  0.0000000000000000  0.0000000000000000
  0.0000000000000000  2.0249999999999999  2.0249999999999999
  2.0249999999999999  0.0000000000000000  2.0249999999999999
  2.0249999999999999  2.0249999999999999  0.0000000000000000
